<number of tasks>
100

<cycle time>
1000

<order strength>
0.895


<task times>
1 139
2 149
3 481
4 177
5 87
6 180
7 392
8 50
9 83
10 193
11 95
12 500
13 213
14 171
15 428
16 484
17 493
18 167
19 430
20 268
21 60
22 135
23 92
24 100
25 92
26 246
27 276
28 101
29 149
30 255
31 246
32 189
33 91
34 247
35 240
36 135
37 80
38 354
39 65
40 103
41 312
42 108
43 221
44 199
45 190
46 74
47 25
48 110
49 59
50 91
51 107
52 247
53 44
54 528
55 341
56 441
57 172
58 83
59 88
60 482
61 150
62 121
63 105
64 49
65 473
66 580
67 361
68 336
69 219
70 226
71 156
72 241
73 233
74 50
75 137
76 483
77 63
78 123
79 563
80 48
81 240
82 241
83 246
84 375
85 327
86 27
87 101
88 511
89 407
90 139
91 24
92 360
93 434
94 336
95 344
96 55
97 302
98 93
99 203
100 133

<precedence relations>
1,5
1,6
2,4
2,5
2,6
3,4
3,5
3,6
4,7
4,8
4,9
4,10
5,7
5,8
5,9
5,10
6,7
6,8
6,9
6,10
7,11
7,12
7,13
8,11
8,12
8,13
9,11
9,12
9,13
10,11
10,12
10,13
11,14
11,15
11,16
12,14
12,15
12,16
13,14
13,15
13,16
14,17
14,18
14,19
14,20
15,17
15,18
15,19
15,20
16,17
16,18
16,19
16,20
17,21
17,22
17,23
18,21
18,22
18,23
19,21
19,22
19,23
20,21
20,22
20,23
21,24
21,25
21,26
21,27
22,24
22,25
22,26
22,27
23,24
23,25
23,26
23,27
24,28
24,29
24,30
24,31
24,32
25,28
25,29
25,30
25,31
25,32
26,28
26,29
26,30
26,31
26,32
27,38
27,41
27,43
28,33
28,34
29,33
29,35
30,33
31,33
31,34
31,35
32,36
33,36
34,36
34,37
34,38
35,36
35,37
35,38
36,39
36,40
36,41
36,42
36,43
37,39
37,40
37,41
38,42
38,47
39,44
39,45
39,46
40,44
40,46
41,44
41,45
42,46
42,53
43,49
44,47
45,51
45,52
46,71
46,86
47,48
47,49
47,50
47,51
47,52
48,53
48,56
48,57
49,53
49,54
49,55
49,56
49,57
50,53
50,54
51,53
51,54
51,55
51,56
52,57
52,69
52,70
52,78
53,58
53,59
53,60
54,58
54,59
54,60
55,58
55,59
55,60
56,58
56,59
56,60
57,73
57,81
58,61
59,61
60,61
61,62
61,63
61,64
61,65
63,67
63,68
63,69
64,70
64,82
64,84
65,66
65,67
65,68
65,69
65,70
66,71
67,72
67,73
67,74
68,83
68,87
68,89
69,77
70,71
70,98
71,90
71,91
72,77
72,81
73,76
73,77
74,75
74,78
75,79
75,80
75,81
76,79
76,80
76,82
77,80
77,82
78,79
78,80
79,83
79,84
79,85
80,83
80,84
81,83
81,90
82,85
83,91
84,87
85,86
85,87
86,89
87,88
88,90
88,91
88,92
88,93
89,91
89,92
92,94
92,95
92,96
93,94
94,97
94,99
94,100
95,97
95,98

<end>
